n_res = 4;
rc = [ 0, 0, 0, 0 ];
n_tasks = 30;
d = [ 4, 4, 2, 4, 5, 2, 9, 4, 5, 2, 3, 3, 5, 6, 7, 6, 10, 5, 4, 6, 6, 8, 4, 8, 8, 3, 8, 5, 2, 10 ];
rr = [| 0, 0, 0, 0, 0, 0, 0, 0, 0, 0, 0, 0, 0, 0, 0, 0, 0, 0, 0, 0, 0, 0, 0, 0, 0, 0, 0, 0, 0, 0
      | 0, 0, 0, 0, 0, 0, 0, 0, 0, 0, 0, 0, 0, 0, 0, 0, 0, 0, 0, 0, 0, 0, 0, 0, 0, 0, 0, 0, 0, 0
      | 0, 0, 0, 0, 0, 0, 0, 0, 0, 0, 0, 0, 0, 0, 0, 0, 0, 0, 0, 0, 0, 0, 0, 0, 0, 0, 0, 0, 0, 0
      | 0, 0, 0, 0, 0, 0, 0, 0, 0, 0, 0, 0, 0, 0, 0, 0, 0, 0, 0, 0, 0, 0, 0, 0, 0, 0, 0, 0, 0, 0 |];
suc = [ { 5, 11, 18 },
       { 4, 6, 10 },
       { 10, 12, 29 },
       { 7, 8, 12 },
       { 13, 22, 26 },
       { 11, 25 },
       { 13, 16, 17 },
       { 9, 11, 17 },
       { 14, 18, 20 },
       { 25 },
       { 15, 16, 19 },
       { 13, 15, 21 },
       { 24, 27 },
       { 15, 16, 19 },
       { 23 },
       { 29 },
       { 20, 27 },
       { 19, 21, 29 },
       { 22, 23, 27 },
       { 21, 23 },
       { 22, 24, 25 },
       { 28, 30 },
       { 24, 26 },
       { 30 },
       { 26, 28 },
       { 30 },
       { 28 },
       {  },
       {  },
       {  } ];
